(declare-const a Real)
(declare-const b Real)
(declare-const c Real)
(assert (= (+ (pow a 2) (pow b 2) (pow c 2)) 12))
(assert (> a 0))
(assert (> b 0))
(assert (> c 0))
(assert (not (<= (+ (* (/ 1 144) (pow (+ (* 6 a) (* 6 c)) 3)) (* -8 (pow a 2) (pow (+ (* 3 (pow a 2)) (* 3 (pow b 2)) (* 3 (pow c 2))) (/ 1 2))) (* -8 (pow b 2) (pow (+ (* 3 (pow a 2)) (* 3 (pow b 2)) (* 3 (pow c 2))) (/ 1 2))) (* -8 (pow c 2) (pow (+ (* 3 (pow a 2)) (* 3 (pow b 2)) (* 3 (pow c 2))) (/ 1 2))) (* 6 b (+ (pow b 2) (pow c 2))) (* 12 b (pow c 2)) (* 18 a (pow b 2)) (* 18 c (pow a 2))) 0)))
(check-sat)
(get-model)
(exit)